334 5
10 10 10 10 10 

0 0 0 0 0 0 4 2 14 26 38 
0 0 0 0 0 0 3 3 5 7 
4 0 0 0 5 0 1 4 
1 0 0 0 10 0 2 8 6 
7 0 0 0 8 0 1 6 
6 0 0 0 10 0 4 12 10 9 304 
5 0 0 0 9 0 3 12 10 9 
9 0 0 0 6 0 2 12 9 
7 0 0 0 3 0 1 11 
6 0 0 0 7 0 1 11 
1 0 0 0 7 0 1 13 
10 0 0 0 10 0 1 13 
0 0 0 0 0 0 1 50 
0 0 0 0 0 0 2 15 76 
4 3 0 0 0 0 2 17 16 
1 6 0 0 0 0 3 20 19 18 
9 6 0 0 0 0 1 18 
2 10 0 0 0 0 3 23 22 21 
3 6 0 0 0 0 2 23 21 
9 8 0 0 0 0 2 22 21 
3 8 0 0 0 0 1 24 
8 10 0 0 0 0 1 24 
2 10 0 0 0 0 1 24 
7 8 0 0 0 0 1 25 
0 0 0 0 0 0 1 50 
0 0 0 0 0 0 4 27 29 36 281 
4 5 0 0 0 0 2 35 28 
5 7 0 0 0 0 1 30 
3 6 0 0 0 0 3 34 33 32 
6 10 0 0 0 0 1 31 
10 10 0 0 0 0 2 33 32 
4 5 0 0 0 0 1 37 
2 9 0 0 0 0 1 37 
5 4 0 0 0 0 1 37 
3 9 0 0 0 0 1 37 
10 10 0 0 0 0 1 37 
0 0 0 0 0 0 1 50 
0 0 0 0 0 0 1 39 
7 0 0 3 0 0 3 43 41 40 
7 0 0 4 0 0 3 46 42 140 
3 0 0 9 0 0 3 48 46 44 
7 0 0 6 0 0 2 47 44 
5 0 0 10 0 0 1 44 
10 0 0 7 0 0 1 45 
10 0 0 10 0 0 1 49 
1 0 0 10 0 0 1 49 
9 0 0 8 0 0 1 49 
2 0 0 8 0 0 1 49 
0 0 0 0 0 0 1 50 
0 0 0 0 0 0 4 51 63 75 87 
0 0 0 0 0 0 2 52 53 
8 0 6 0 0 0 2 56 54 
4 0 7 0 0 0 1 54 
3 0 9 0 0 0 2 57 55 
2 0 8 0 0 0 2 59 58 
7 0 10 0 0 0 2 59 58 
6 0 6 0 0 0 1 58 
4 0 7 0 0 0 2 61 60 
10 0 9 0 0 0 3 61 60 222 
8 0 6 0 0 0 1 62 
6 0 7 0 0 0 1 62 
0 0 0 0 0 0 1 99 
0 0 0 0 0 0 4 64 66 67 73 
1 3 0 0 0 0 2 70 65 
6 7 0 0 0 0 2 72 68 
7 10 0 0 0 0 1 68 
3 5 0 0 0 0 2 72 71 
6 6 0 0 0 0 1 69 
6 8 0 0 0 0 1 71 
5 8 0 0 0 0 2 72 79 
2 8 0 0 0 0 1 74 
8 10 0 0 0 0 1 74 
5 10 0 0 0 0 1 74 
0 0 0 0 0 0 1 99 
0 0 0 0 0 0 1 76 
1 0 0 0 3 0 3 80 78 77 
8 0 0 0 4 0 3 85 84 79 
1 0 0 0 9 0 4 85 84 83 81 
10 0 0 0 5 0 2 83 81 
3 0 0 0 10 0 2 81 272 
6 0 0 0 10 0 1 82 
8 0 0 0 7 0 1 86 
2 0 0 0 10 0 1 86 
6 0 0 0 7 0 1 86 
5 0 0 0 10 0 1 86 
0 0 0 0 0 0 1 99 
0 0 0 0 0 0 1 88 
2 0 0 1 0 0 2 92 89 
3 0 0 8 0 0 3 94 91 90 
3 0 0 9 0 0 2 95 93 
7 0 0 5 0 0 2 95 93 
1 0 0 10 0 0 2 97 94 
1 0 0 9 0 0 2 97 96 
2 0 0 8 0 0 1 95 
8 0 0 8 0 0 1 96 
9 0 0 10 0 0 2 98 314 
8 0 0 7 0 0 1 98 
0 0 0 0 0 0 1 99 
0 0 0 0 0 0 4 100 132 144 176 
0 0 0 0 0 0 3 101 102 130 
10 0 3 0 4 1 2 129 103 
2 0 9 0 10 4 2 129 103 
8 0 9 0 7 10 2 109 104 
8 0 5 0 7 8 2 113 105 
4 0 9 0 9 5 3 128 121 106 
8 0 4 0 5 8 1 107 
2 0 5 0 7 5 2 116 108 
3 0 6 0 10 8 2 127 110 
3 0 7 0 10 8 3 127 113 111 
4 0 10 0 6 6 2 120 111 
3 0 9 0 8 6 1 112 
5 0 10 0 7 10 2 126 114 
10 0 6 0 5 10 1 114 
5 0 10 0 10 4 1 115 
2 0 5 0 6 4 3 125 119 117 
8 0 10 0 9 10 4 125 124 123 122 
4 0 4 0 8 10 3 124 123 118 
1 0 8 0 10 7 1 122 
8 0 9 0 7 10 1 123 
3 0 9 0 7 9 1 122 
10 0 8 0 6 5 1 122 
2 0 8 0 7 8 1 131 
5 0 7 0 10 9 1 131 
1 0 10 0 6 8 1 131 
1 0 10 0 4 10 1 131 
7 0 8 0 5 7 2 131 275 
7 0 10 0 10 9 1 131 
4 0 6 0 8 10 1 131 
10 0 5 0 10 6 1 131 
5 0 6 0 7 10 1 131 
0 0 0 0 0 0 1 334 
0 0 0 0 0 0 5 133 134 135 137 202 
5 0 0 0 0 3 1 136 
4 0 0 0 0 10 1 136 
2 0 0 0 0 9 1 136 
4 0 0 0 0 6 1 138 
8 0 0 0 0 6 1 138 
5 0 0 0 0 9 1 139 
9 0 0 0 0 8 3 142 141 140 
8 0 0 0 0 7 1 143 
7 0 0 0 0 10 1 143 
10 0 0 0 0 7 1 143 
0 0 0 0 0 0 4 208 230 252 274 
0 0 0 0 0 0 3 145 153 174 
9 0 0 5 4 6 2 173 146 
7 0 0 9 5 7 2 171 147 
9 0 0 5 10 5 1 148 
2 0 0 7 8 3 4 170 168 149 331 
4 0 0 9 10 6 2 169 150 
1 0 0 8 7 7 3 167 166 151 
4 0 0 7 8 3 1 152 
8 0 0 8 10 6 2 165 154 
7 0 0 4 7 10 4 172 168 166 157 
4 0 0 3 7 10 1 155 
8 0 0 10 10 8 1 156 
4 0 0 8 10 10 2 164 157 
2 0 0 7 5 10 4 163 162 161 158 
8 0 0 8 4 10 1 159 
8 0 0 8 6 9 1 160 
5 0 0 10 8 10 1 175 
5 0 0 10 8 10 1 175 
1 0 0 8 10 9 1 175 
10 0 0 9 7 3 1 175 
8 0 0 10 9 8 1 175 
1 0 0 10 8 9 1 175 
7 0 0 10 9 10 1 175 
6 0 0 9 5 10 1 175 
4 0 0 7 4 4 1 175 
3 0 0 9 6 6 1 175 
4 0 0 3 8 9 1 175 
1 0 0 6 5 8 1 175 
6 0 0 7 10 7 1 175 
9 0 0 3 9 2 1 175 
1 0 0 8 8 10 1 175 
0 0 0 0 0 0 1 334 
0 0 0 0 0 0 3 177 184 206 
6 0 2 2 0 3 2 205 178 
7 0 5 6 0 5 2 203 179 
5 0 9 5 0 4 1 180 
4 0 4 10 0 9 4 202 200 181 253 
1 0 10 7 0 4 2 201 182 
1 0 9 7 0 9 3 199 198 183 
2 0 6 9 0 6 1 185 
9 0 7 6 0 3 6 204 200 198 197 196 189 
8 0 10 7 0 10 2 197 186 
3 0 9 9 0 4 1 187 
2 0 3 5 0 9 1 188 
3 0 10 10 0 6 2 196 189 
7 0 4 10 0 10 4 195 194 193 190 
8 0 9 10 0 10 1 191 
9 0 10 10 0 9 1 192 
5 0 10 5 0 10 1 207 
5 0 8 10 0 7 1 207 
1 0 10 7 0 7 1 207 
6 0 5 10 0 10 1 207 
7 0 6 10 0 7 1 207 
6 0 8 5 0 9 1 207 
10 0 6 6 0 10 1 207 
4 0 9 7 0 10 1 207 
2 0 6 5 0 9 1 207 
7 0 7 8 0 10 1 207 
2 0 10 9 0 9 1 207 
10 0 7 10 0 4 1 207 
7 0 6 10 0 6 1 207 
7 0 10 6 0 6 1 207 
3 0 10 4 0 10 1 207 
0 0 0 0 0 0 1 334 
0 0 0 0 0 0 2 209 228 
4 7 0 0 2 0 1 210 
5 6 0 0 6 0 2 220 211 
5 8 0 0 10 0 1 212 
5 8 0 0 5 0 2 219 213 
8 10 0 0 10 0 4 227 225 216 214 
4 8 0 0 9 0 1 215 
10 6 0 0 10 0 2 224 217 
7 6 0 0 6 0 2 224 217 
9 5 0 0 7 0 3 223 222 218 
6 7 0 0 5 0 1 221 
9 7 0 0 8 0 1 226 
8 10 0 0 7 0 1 225 
5 8 0 0 5 0 1 229 
10 7 0 0 10 0 1 229 
6 8 0 0 8 0 2 229 280 
4 9 0 0 9 0 1 229 
8 7 0 0 7 0 1 229 
9 7 0 0 9 0 1 229 
10 8 0 0 9 0 1 229 
5 8 0 0 8 0 1 229 
0 0 0 0 0 0 1 334 
0 0 0 0 0 0 1 231 
8 4 0 0 0 6 2 236 232 
8 7 0 0 0 8 1 233 
7 3 0 0 0 9 3 249 241 234 
1 8 0 0 0 6 3 250 248 235 
4 9 0 0 0 8 2 246 237 
9 10 0 0 0 9 6 249 248 246 244 243 239 
1 8 0 0 0 10 3 247 245 238 
9 6 0 0 0 10 3 244 243 239 
1 6 0 0 0 10 2 240 272 
2 9 0 0 0 7 1 242 
2 9 0 0 0 8 1 245 
10 6 0 0 0 5 1 251 
2 8 0 0 0 10 1 251 
8 8 0 0 0 4 1 251 
2 10 0 0 0 10 1 251 
3 5 0 0 0 10 1 251 
8 7 0 0 0 7 1 251 
1 10 0 0 0 4 1 251 
3 8 0 0 0 2 1 251 
8 9 0 0 0 7 1 251 
0 0 0 0 0 0 1 334 
0 0 0 0 0 0 2 253 254 
3 6 0 0 0 5 4 260 259 258 256 
1 6 0 0 0 6 3 262 258 255 
4 5 0 0 0 10 1 257 
8 5 0 0 0 7 4 266 263 262 261 
2 7 0 0 0 3 3 266 263 260 
2 6 0 0 0 6 2 266 261 
8 9 0 0 0 10 2 265 263 
2 7 0 0 0 8 1 261 
9 10 0 0 0 4 2 265 264 
9 10 0 0 0 4 2 265 264 
10 8 0 0 0 6 1 264 
3 9 0 0 0 10 1 267 
4 9 0 0 0 10 1 267 
8 10 0 0 0 10 1 267 
3 9 0 0 0 9 2 270 268 
7 10 0 0 0 4 2 271 269 
6 8 0 0 0 10 1 272 
1 5 0 0 0 10 1 271 
6 6 0 0 0 10 1 273 
5 5 0 0 0 8 1 273 
0 0 0 0 0 0 1 334 
0 0 0 0 0 0 5 275 277 281 283 284 
6 4 0 0 0 0 2 280 276 
9 7 0 0 0 0 1 278 
7 8 0 0 0 0 1 278 
10 6 0 0 0 0 1 279 
8 7 0 0 0 0 1 282 
2 10 0 0 0 0 1 282 
9 8 0 0 0 0 1 282 
8 10 0 0 0 0 1 285 
2 6 0 0 0 0 1 285 
4 9 0 0 0 0 1 285 
0 0 0 0 0 0 4 286 298 310 322 
0 0 0 0 0 0 3 287 288 289 
7 0 4 0 0 0 2 295 290 
9 0 7 0 0 0 3 295 292 291 
10 0 7 0 0 0 3 295 293 291 
9 0 10 0 0 0 2 292 291 
2 0 6 0 0 0 1 294 
7 0 10 0 0 0 1 293 
6 0 6 0 0 0 1 296 
5 0 8 0 0 0 1 296 
6 0 9 0 0 0 1 296 
3 0 8 0 0 0 1 297 
0 0 0 0 0 0 1 334 
0 0 0 0 0 0 5 299 301 304 307 308 
5 10 0 0 0 0 1 300 
8 4 0 0 0 0 1 302 
7 3 0 0 0 0 1 302 
3 10 0 0 0 0 1 303 
4 10 0 0 0 0 1 305 
7 9 0 0 0 0 1 306 
1 10 0 0 0 0 1 309 
7 10 0 0 0 0 1 309 
1 4 0 0 0 0 1 309 
2 5 0 0 0 0 1 309 
0 0 0 0 0 0 1 334 
0 0 0 0 0 0 3 311 312 313 
7 0 2 0 0 0 2 318 314 
1 0 8 0 0 0 2 318 314 
1 0 8 0 0 0 1 314 
6 0 10 0 0 0 2 317 315 
1 0 10 0 0 0 1 316 
2 0 10 0 0 0 1 320 
10 0 6 0 0 0 1 319 
9 0 8 0 0 0 1 319 
8 0 8 0 0 0 1 321 
9 0 5 0 0 0 1 321 
0 0 0 0 0 0 1 334 
0 0 0 0 0 0 4 323 330 331 332 
3 0 4 0 0 0 3 329 328 324 
6 0 10 0 0 0 1 325 
1 0 10 0 0 0 1 326 
9 0 9 0 0 0 1 327 
10 0 6 0 0 0 1 333 
7 0 6 0 0 0 1 333 
1 0 10 0 0 0 1 333 
10 0 6 0 0 0 1 333 
9 0 10 0 0 0 1 333 
8 0 4 0 0 0 1 333 
0 0 0 0 0 0 1 334 
0 0 0 0 0 0 0 
